10	5
0	1	1
1	2	6	8
2	1	3
3	2	7	10
4	1	5
5	2	2	9
6	1	4
7	1	11
8	1	11
9	1	11
10	1	11
11	0
0	0	0	0	0	0	0
1	2	0	0	5	4	0
2	5	0	0	3	4	0
3	3	0	0	4	0	0
4	3	0	3	0	0	0
5	9	0	0	4	0	5
6	7	2	0	1	4	0
7	6	5	0	0	5	0
8	6	3	3	4	0	0
9	10	3	2	0	1	2
10	7	1	3	1	2	3
11	0	0	0	0	0	0
4	4	6	5	5
